problem_generation/data/GISP/train/er_n=61_m=1141_p=0.60_SET2_setparam=100.00_alpha=0.50_201.lp
maximize
OBJ:100x0 + 100x1 + 100x2 + 100x3 + 100x4 + 100x5 + 100x6 + 100x7 + 100x8 + 100x9 + 100x10 + 100x11 + 100x12 + 100x13 + 100x14 + 100x15 + 100x16 + 100x17 + 100x18 + 100x19 + 100x20 + 100x21 + 100x22 + 100x23 + 100x24 + 100x25 + 100x26 + 100x27 + 100x28 + 100x29 + 100x30 + 100x31 + 100x32 + 100x33 + 100x34 + 100x35 + 100x36 + 100x37 + 100x38 + 100x39 + 100x40 + 100x41 + 100x42 + 100x43 + 100x44 + 100x45 + 100x46 + 100x47 + 100x48 + 100x49 + 100x50 + 100x51 + 100x52 + 100x53 + 100x54 + 100x55 + 100x56 + 100x57 + 100x58 + 100x59 + 100x60 - y26_30 - y18_26 - y26_39 - y18_44 - y8_9 - y40_41 - y48_54 - y21_37 - y0_14 - y6_48 - y6_57 - y40_59 - y10_27 - y10_45 - y3_6 - y33_56 - y25_52 - y2_59 - y43_60 - y22_46 - y36_48 - y7_30 - y18_30 - y6_34 - y29_36 - y40_45 - y10_31 - y2_27 - y10_40 - y2_36 - y10_49 - y2_45 - y25_47 - y2_54 - y32_55 - y3_28 - y13_60 - y24_60 - y14_37 - y36_43 - y17_39 - y6_38 - y40_49 - y10_17 - y2_31 - y25_33 - y10_44 - y25_42 - y32_41 - y51_54 - y2_49 - y3_23 - y1_53 - y16_60 - y28_34 - y36_47 - y28_43 - y36_56 - y9_39 - y6_15 - y9_48 - y5_59 - y9_57 - y6_42 - y40_44 - y6_51 - y21_49 - y10_12 - y2_8 - y2_17 - y23_58 - y2_35 - y32_45 - y43_45 - y24_41 - y3_18 - y14_18 - y16_37 - y1_48 - y32_54 - y43_54 - y35_59 - y17_20 - y28_29 - y9_25 - y5_36 - y28_38 - y47_51 - y17_47 - y29_30 - y21_26 - y21_35 - y39_43 - y20_39 - y10_16 - y2_12 - y20_48 - y31_48 - y54_59 - y23_53 - y4_49 - y13_27 - y32_49 - y16_32 - y43_49 - y24_45 - y35_45 - y32_58 - y16_41 - y43_58 - y1_52 - y35_54 - y9_11 - y16_59 - y5_22 - y57_60 - y9_20 - y5_31 - y3_47 - y9_38 - y5_49 - y6_14 - y9_47 - y5_58 - y6_23 - y27_55 - y50_57 - y8_51 - y42_53 - y8_60 - y0_56 - y10_11 - y31_43 - y39_56 - y12_39 - y2_16 - y31_52 - y23_57 - y4_53 - y32_35 - y1_29 - y43_44 - y35_40 - y16_36 - y35_49 - y5_8 - y35_58 - y16_54 - y46_55 - y38_51 - y49_51 - y49_60 - y30_46 - y42_48 - y19_55 - y0_60 - y31_38 - y20_56 - y4_48 - y4_57 - y1_33 - y13_35 - y24_35 - y16_40 - y9_10 - y46_59 - y57_59 - y15_53 - y26_53 - y5_39 - y18_58 - y6_13 - y19_41 - y30_41 - y30_50 - y30_59 - y20_24 - y0_55 - y20_33 - y39_46 - y12_29 - y12_38 - y12_47 - y4_43 - y1_19 - y53_57 - y4_52 - y1_28 - y1_37 - y1_46 - y15_57 - y26_57 - y38_59 - y27_40 - y19_36 - y50_51 - y8_45 - y30_45 - y11_41 - y12_15 - y4_11 - y0_59 - y31_37 - y1_14 - y37_44 - y16_21 - y5_11 - y38_54 - y8_13 - y18_57 - y27_35 - y11_18 - y0_27 - y19_40 - y8_49 - y41_46 - y20_23 - y20_32 - y31_32 - y12_28 - y23_28 - y33_60 - y23_37 - y1_9 - y53_56 - y34_52 - y3_46 - y37_48 - y15_20 - y15_29 - y26_29 - y7_25 - y26_38 - y18_34 - y15_47 - y18_43 - y15_56 - y26_56 - y0_4 - y7_52 - y8_17 - y27_30 - y0_13 - y19_26 - y11_22 - y29_58 - y30_44 - y11_49 - y10_53 - y33_55 - y2_58 - y22_36 - y1_13 - y22_45 - y34_47 - y37_43 - y3_50 - y14_50 - y15_24 - y7_20 - y7_29 - y15_42 - y18_38 - y26_51 - y7_56 - y0_26 - y21_58 - y0_35 - y52_54 - y33_50 - y2_44 - y33_59 - y44_59 - y22_49 - y34_51 - y3_54 - y7_24 - y47_60 - y26_37 - y7_33 - y18_42 - y19_25 - y21_44 - y0_21 - y40_57 - y21_53 - y41_49 - y33_45 - y10_52 - y25_50 - y22_26 - y22_35 - y14_40 - y22_53 - y7_10 - y15_23 - y26_32 - y17_51 - y7_28 - y8_11 - y0_16 - y29_52 - y21_57 - y10_20 - y25_27 - y10_38 - y2_34 - y44_49 - y25_45 - y3_8 - y14_44 - y36_41 - y36_50 - y47_50 - y17_46 - y18_23 - y9_42 - y47_59 - y0_2 - y48_51 - y29_47 - y10_24 - y2_20 - y54_58 - y33_44 - y25_40 - y10_51 - y13_53 - y14_30 - y55_58 - y36_54 - y47_54 - y28_50 - y6_31 - y21_29 - y6_40 - y29_42 - y21_38 - y39_55 - y2_15 - y10_28 - y3_7 - y32_43 - y14_16 - y43_52 - y35_48 - y14_25 - y16_44 - y24_57 - y5_34 - y47_49 - y36_58 - y9_41 - y47_58 - y5_52 - y17_54 - y28_54 - y9_59 - y10_14 - y2_10 - y39_59 - y10_32 - y12_51 - y2_37 - y32_47 - y43_47 - y1_41 - y13_43 - y32_56 - y35_43 - y43_56 - y16_48 - y17_31 - y28_31 - y36_44 - y17_40 - y28_40 - y9_36 - y5_56 - y6_21 - y9_54 - y2_5 - y20_41 - y10_18 - y20_50 - y12_46 - y31_59 - y4_42 - y12_55 - y1_27 - y24_29 - y13_38 - y35_38 - y32_51 - y13_47 - y1_54 - y13_56 - y24_56 - y5_33 - y28_35 - y9_40 - y21_23 - y27_57 - y42_55 - y11_58 - y20_36 - y31_36 - y23_32 - y31_54 - y23_50 - y4_46 - y1_22 - y32_37 - y16_20 - y13_33 - y16_47 - y46_48 - y5_19 - y38_53 - y8_39 - y27_52 - y50_54 - y19_48 - y30_48 - y12_18 - y20_31 - y39_44 - y20_40 - y12_36 - y20_49 - y23_45 - y20_58 - y4_41 - y23_54 - y13_19 - y53_55 - y24_28 - y4_59 - y16_24 - y34_60 - y13_37 - y24_37 - y35_37 - y45_60 - y38_39 - y5_14 - y46_52 - y15_46 - y9_21 - y18_60 - y27_38 - y8_43 - y11_39 - y11_48 - y20_35 - y20_44 - y1_3 - y12_49 - y13_14 - y4_45 - y34_46 - y53_59 - y16_19 - y14_58 - y5_9 - y5_18 - y15_50 - y26_50 - y38_52 - y7_46 - y15_59 - y26_59 - y7_55 - y8_20 - y18_55 - y27_42 - y11_34 - y8_47 - y30_47 - y0_52 - y12_26 - y23_26 - y4_22 - y44_58 - y23_35 - y34_50 - y1_25 - y22_57 - y56_59 - y3_53 - y26_36 - y7_32 - y18_32 - y26_45 - y38_47 - y7_41 - y26_54 - y38_56 - y49_56 - y18_50 - y7_59 - y27_37 - y0_20 - y11_20 - y30_33 - y19_42 - y41_48 - y20_25 - y12_21 - y41_57 - y52_57 - y33_53 - y25_49 - y4_26 - y1_2 - y1_11 - y22_43 - y22_52 - y34_54 - y14_48 - y37_50 - y15_22 - y15_31 - y26_31 - y37_49 - y38_42 - y15_49 - y8_10 - y27_32 - y21_56 - y41_52 - y33_48 - y4_21 - y33_57 - y2_51 - y1_6 - y22_38 - y34_40 - y22_47 - y3_43 - y14_43 - y45_58 - y7_22 - y18_22 - y26_35 - y15_44 - y26_44 - y7_40 - y18_49 - y29_46 - y40_55 - y30_32 - y21_51 - y33_34 - y41_47 - y10_41 - y25_39 - y10_50 - y22_24 - y3_20 - y14_20 - y22_33 - y3_29 - y34_44 - y37_40 - y14_47 - y14_56
 Subject to
C1: x0+x1 <=1 
C2: x0+x2-y0_2 <=1 
C3: x0+x3 <=1 
C4: x0+x4-y0_4 <=1 
C5: x0+x7 <=1 
C6: x0+x9 <=1 
C7: x0+x12 <=1 
C8: x0+x13-y0_13 <=1 
C9: x0+x14-y0_14 <=1 
C10: x0+x15 <=1 
C11: x0+x16-y0_16 <=1 
C12: x0+x18 <=1 
C13: x0+x19 <=1 
C14: x0+x20-y0_20 <=1 
C15: x0+x21-y0_21 <=1 
C16: x0+x22 <=1 
C17: x0+x25 <=1 
C18: x0+x26-y0_26 <=1 
C19: x0+x27-y0_27 <=1 
C20: x0+x29 <=1 
C21: x0+x30 <=1 
C22: x0+x34 <=1 
C23: x0+x35-y0_35 <=1 
C24: x0+x36 <=1 
C25: x0+x37 <=1 
C26: x0+x40 <=1 
C27: x0+x41 <=1 
C28: x0+x43 <=1 
C29: x0+x45 <=1 
C30: x0+x46 <=1 
C31: x0+x49 <=1 
C32: x0+x50 <=1 
C33: x0+x51 <=1 
C34: x0+x52-y0_52 <=1 
C35: x0+x54 <=1 
C36: x0+x55-y0_55 <=1 
C37: x0+x56-y0_56 <=1 
C38: x0+x58 <=1 
C39: x0+x59-y0_59 <=1 
C40: x0+x60-y0_60 <=1 
C41: x1+x2-y1_2 <=1 
C42: x1+x3-y1_3 <=1 
C43: x1+x4 <=1 
C44: x1+x6-y1_6 <=1 
C45: x1+x9-y1_9 <=1 
C46: x1+x11-y1_11 <=1 
C47: x1+x12 <=1 
C48: x1+x13-y1_13 <=1 
C49: x1+x14-y1_14 <=1 
C50: x1+x15 <=1 
C51: x1+x17 <=1 
C52: x1+x19-y1_19 <=1 
C53: x1+x22-y1_22 <=1 
C54: x1+x24 <=1 
C55: x1+x25-y1_25 <=1 
C56: x1+x27-y1_27 <=1 
C57: x1+x28-y1_28 <=1 
C58: x1+x29-y1_29 <=1 
C59: x1+x33-y1_33 <=1 
C60: x1+x34 <=1 
C61: x1+x36 <=1 
C62: x1+x37-y1_37 <=1 
C63: x1+x38 <=1 
C64: x1+x39 <=1 
C65: x1+x41-y1_41 <=1 
C66: x1+x46-y1_46 <=1 
C67: x1+x48-y1_48 <=1 
C68: x1+x50 <=1 
C69: x1+x52-y1_52 <=1 
C70: x1+x53-y1_53 <=1 
C71: x1+x54-y1_54 <=1 
C72: x1+x55 <=1 
C73: x1+x57 <=1 
C74: x1+x60 <=1 
C75: x2+x3 <=1 
C76: x2+x5-y2_5 <=1 
C77: x2+x6 <=1 
C78: x2+x7 <=1 
C79: x2+x8-y2_8 <=1 
C80: x2+x10-y2_10 <=1 
C81: x2+x12-y2_12 <=1 
C82: x2+x15-y2_15 <=1 
C83: x2+x16-y2_16 <=1 
C84: x2+x17-y2_17 <=1 
C85: x2+x20-y2_20 <=1 
C86: x2+x21 <=1 
C87: x2+x22 <=1 
C88: x2+x23 <=1 
C89: x2+x24 <=1 
C90: x2+x25 <=1 
C91: x2+x26 <=1 
C92: x2+x27-y2_27 <=1 
C93: x2+x28 <=1 
C94: x2+x30 <=1 
C95: x2+x31-y2_31 <=1 
C96: x2+x32 <=1 
C97: x2+x33 <=1 
C98: x2+x34-y2_34 <=1 
C99: x2+x35-y2_35 <=1 
C100: x2+x36-y2_36 <=1 
C101: x2+x37-y2_37 <=1 
C102: x2+x39 <=1 
C103: x2+x43 <=1 
C104: x2+x44-y2_44 <=1 
C105: x2+x45-y2_45 <=1 
C106: x2+x46 <=1 
C107: x2+x47 <=1 
C108: x2+x48 <=1 
C109: x2+x49-y2_49 <=1 
C110: x2+x51-y2_51 <=1 
C111: x2+x52 <=1 
C112: x2+x53 <=1 
C113: x2+x54-y2_54 <=1 
C114: x2+x55 <=1 
C115: x2+x56 <=1 
C116: x2+x58-y2_58 <=1 
C117: x2+x59-y2_59 <=1 
C118: x3+x4 <=1 
C119: x3+x5 <=1 
C120: x3+x6-y3_6 <=1 
C121: x3+x7-y3_7 <=1 
C122: x3+x8-y3_8 <=1 
C123: x3+x12 <=1 
C124: x3+x15 <=1 
C125: x3+x16 <=1 
C126: x3+x18-y3_18 <=1 
C127: x3+x20-y3_20 <=1 
C128: x3+x23-y3_23 <=1 
C129: x3+x27 <=1 
C130: x3+x28-y3_28 <=1 
C131: x3+x29-y3_29 <=1 
C132: x3+x32 <=1 
C133: x3+x35 <=1 
C134: x3+x39 <=1 
C135: x3+x42 <=1 
C136: x3+x43-y3_43 <=1 
C137: x3+x44 <=1 
C138: x3+x46-y3_46 <=1 
C139: x3+x47-y3_47 <=1 
C140: x3+x49 <=1 
C141: x3+x50-y3_50 <=1 
C142: x3+x53-y3_53 <=1 
C143: x3+x54-y3_54 <=1 
C144: x3+x55 <=1 
C145: x3+x58 <=1 
C146: x3+x59 <=1 
C147: x4+x7 <=1 
C148: x4+x8 <=1 
C149: x4+x9 <=1 
C150: x4+x10 <=1 
C151: x4+x11-y4_11 <=1 
C152: x4+x14 <=1 
C153: x4+x17 <=1 
C154: x4+x18 <=1 
C155: x4+x19 <=1 
C156: x4+x21-y4_21 <=1 
C157: x4+x22-y4_22 <=1 
C158: x4+x25 <=1 
C159: x4+x26-y4_26 <=1 
C160: x4+x27 <=1 
C161: x4+x28 <=1 
C162: x4+x30 <=1 
C163: x4+x33 <=1 
C164: x4+x34 <=1 
C165: x4+x36 <=1 
C166: x4+x39 <=1 
C167: x4+x41-y4_41 <=1 
C168: x4+x42-y4_42 <=1 
C169: x4+x43-y4_43 <=1 
C170: x4+x45-y4_45 <=1 
C171: x4+x46-y4_46 <=1 
C172: x4+x47 <=1 
C173: x4+x48-y4_48 <=1 
C174: x4+x49-y4_49 <=1 
C175: x4+x50 <=1 
C176: x4+x51 <=1 
C177: x4+x52-y4_52 <=1 
C178: x4+x53-y4_53 <=1 
C179: x4+x56 <=1 
C180: x4+x57-y4_57 <=1 
C181: x4+x58 <=1 
C182: x4+x59-y4_59 <=1 
C183: x4+x60 <=1 
C184: x5+x8-y5_8 <=1 
C185: x5+x9-y5_9 <=1 
C186: x5+x10 <=1 
C187: x5+x11-y5_11 <=1 
C188: x5+x12 <=1 
C189: x5+x13 <=1 
C190: x5+x14-y5_14 <=1 
C191: x5+x16 <=1 
C192: x5+x18-y5_18 <=1 
C193: x5+x19-y5_19 <=1 
C194: x5+x20 <=1 
C195: x5+x21 <=1 
C196: x5+x22-y5_22 <=1 
C197: x5+x24 <=1 
C198: x5+x28 <=1 
C199: x5+x30 <=1 
C200: x5+x31-y5_31 <=1 
C201: x5+x33-y5_33 <=1 
C202: x5+x34-y5_34 <=1 
C203: x5+x36-y5_36 <=1 
C204: x5+x39-y5_39 <=1 
C205: x5+x41 <=1 
C206: x5+x44 <=1 
C207: x5+x46 <=1 
C208: x5+x47 <=1 
C209: x5+x49-y5_49 <=1 
C210: x5+x52-y5_52 <=1 
C211: x5+x56-y5_56 <=1 
C212: x5+x58-y5_58 <=1 
C213: x5+x59-y5_59 <=1 
C214: x6+x13-y6_13 <=1 
C215: x6+x14-y6_14 <=1 
C216: x6+x15-y6_15 <=1 
C217: x6+x18 <=1 
C218: x6+x19 <=1 
C219: x6+x20 <=1 
C220: x6+x21-y6_21 <=1 
C221: x6+x23-y6_23 <=1 
C222: x6+x26 <=1 
C223: x6+x27 <=1 
C224: x6+x28 <=1 
C225: x6+x31-y6_31 <=1 
C226: x6+x32 <=1 
C227: x6+x33 <=1 
C228: x6+x34-y6_34 <=1 
C229: x6+x35 <=1 
C230: x6+x37 <=1 
C231: x6+x38-y6_38 <=1 
C232: x6+x40-y6_40 <=1 
C233: x6+x41 <=1 
C234: x6+x42-y6_42 <=1 
C235: x6+x46 <=1 
C236: x6+x47 <=1 
C237: x6+x48-y6_48 <=1 
C238: x6+x49 <=1 
C239: x6+x50 <=1 
C240: x6+x51-y6_51 <=1 
C241: x6+x57-y6_57 <=1 
C242: x6+x58 <=1 
C243: x6+x59 <=1 
C244: x7+x10-y7_10 <=1 
C245: x7+x12 <=1 
C246: x7+x13 <=1 
C247: x7+x14 <=1 
C248: x7+x16 <=1 
C249: x7+x17 <=1 
C250: x7+x18 <=1 
C251: x7+x20-y7_20 <=1 
C252: x7+x22-y7_22 <=1 
C253: x7+x23 <=1 
C254: x7+x24-y7_24 <=1 
C255: x7+x25-y7_25 <=1 
C256: x7+x26 <=1 
C257: x7+x27 <=1 
C258: x7+x28-y7_28 <=1 
C259: x7+x29-y7_29 <=1 
C260: x7+x30-y7_30 <=1 
C261: x7+x31 <=1 
C262: x7+x32-y7_32 <=1 
C263: x7+x33-y7_33 <=1 
C264: x7+x34 <=1 
C265: x7+x35 <=1 
C266: x7+x36 <=1 
C267: x7+x37 <=1 
C268: x7+x38 <=1 
C269: x7+x40-y7_40 <=1 
C270: x7+x41-y7_41 <=1 
C271: x7+x44 <=1 
C272: x7+x46-y7_46 <=1 
C273: x7+x47 <=1 
C274: x7+x48 <=1 
C275: x7+x52-y7_52 <=1 
C276: x7+x55-y7_55 <=1 
C277: x7+x56-y7_56 <=1 
C278: x7+x57 <=1 
C279: x7+x59-y7_59 <=1 
C280: x8+x9-y8_9 <=1 
C281: x8+x10-y8_10 <=1 
C282: x8+x11-y8_11 <=1 
C283: x8+x12 <=1 
C284: x8+x13-y8_13 <=1 
C285: x8+x16 <=1 
C286: x8+x17-y8_17 <=1 
C287: x8+x19 <=1 
C288: x8+x20-y8_20 <=1 
C289: x8+x21 <=1 
C290: x8+x22 <=1 
C291: x8+x24 <=1 
C292: x8+x28 <=1 
C293: x8+x30 <=1 
C294: x8+x31 <=1 
C295: x8+x32 <=1 
C296: x8+x36 <=1 
C297: x8+x37 <=1 
C298: x8+x39-y8_39 <=1 
C299: x8+x43-y8_43 <=1 
C300: x8+x44 <=1 
C301: x8+x45-y8_45 <=1 
C302: x8+x47-y8_47 <=1 
C303: x8+x49-y8_49 <=1 
C304: x8+x50 <=1 
C305: x8+x51-y8_51 <=1 
C306: x8+x52 <=1 
C307: x8+x55 <=1 
C308: x8+x58 <=1 
C309: x8+x59 <=1 
C310: x8+x60-y8_60 <=1 
C311: x9+x10-y9_10 <=1 
C312: x9+x11-y9_11 <=1 
C313: x9+x12 <=1 
C314: x9+x15 <=1 
C315: x9+x16 <=1 
C316: x9+x17 <=1 
C317: x9+x18 <=1 
C318: x9+x19 <=1 
C319: x9+x20-y9_20 <=1 
C320: x9+x21-y9_21 <=1 
C321: x9+x23 <=1 
C322: x9+x24 <=1 
C323: x9+x25-y9_25 <=1 
C324: x9+x27 <=1 
C325: x9+x28 <=1 
C326: x9+x29 <=1 
C327: x9+x30 <=1 
C328: x9+x34 <=1 
C329: x9+x36-y9_36 <=1 
C330: x9+x38-y9_38 <=1 
C331: x9+x39-y9_39 <=1 
C332: x9+x40-y9_40 <=1 
C333: x9+x41-y9_41 <=1 
C334: x9+x42-y9_42 <=1 
C335: x9+x43 <=1 
C336: x9+x46 <=1 
C337: x9+x47-y9_47 <=1 
C338: x9+x48-y9_48 <=1 
C339: x9+x51 <=1 
C340: x9+x52 <=1 
C341: x9+x53 <=1 
C342: x9+x54-y9_54 <=1 
C343: x9+x55 <=1 
C344: x9+x57-y9_57 <=1 
C345: x9+x59-y9_59 <=1 
C346: x9+x60 <=1 
C347: x10+x11-y10_11 <=1 
C348: x10+x12-y10_12 <=1 
C349: x10+x13 <=1 
C350: x10+x14-y10_14 <=1 
C351: x10+x15 <=1 
C352: x10+x16-y10_16 <=1 
C353: x10+x17-y10_17 <=1 
C354: x10+x18-y10_18 <=1 
C355: x10+x20-y10_20 <=1 
C356: x10+x23 <=1 
C357: x10+x24-y10_24 <=1 
C358: x10+x25 <=1 
C359: x10+x27-y10_27 <=1 
C360: x10+x28-y10_28 <=1 
C361: x10+x29 <=1 
C362: x10+x31-y10_31 <=1 
C363: x10+x32-y10_32 <=1 
C364: x10+x33 <=1 
C365: x10+x35 <=1 
C366: x10+x38-y10_38 <=1 
C367: x10+x40-y10_40 <=1 
C368: x10+x41-y10_41 <=1 
C369: x10+x42 <=1 
C370: x10+x43 <=1 
C371: x10+x44-y10_44 <=1 
C372: x10+x45-y10_45 <=1 
C373: x10+x46 <=1 
C374: x10+x49-y10_49 <=1 
C375: x10+x50-y10_50 <=1 
C376: x10+x51-y10_51 <=1 
C377: x10+x52-y10_52 <=1 
C378: x10+x53-y10_53 <=1 
C379: x10+x54 <=1 
C380: x10+x55 <=1 
C381: x11+x12 <=1 
C382: x11+x14 <=1 
C383: x11+x17 <=1 
C384: x11+x18-y11_18 <=1 
C385: x11+x19 <=1 
C386: x11+x20-y11_20 <=1 
C387: x11+x22-y11_22 <=1 
C388: x11+x25 <=1 
C389: x11+x29 <=1 
C390: x11+x34-y11_34 <=1 
C391: x11+x35 <=1 
C392: x11+x39-y11_39 <=1 
C393: x11+x41-y11_41 <=1 
C394: x11+x43 <=1 
C395: x11+x45 <=1 
C396: x11+x48-y11_48 <=1 
C397: x11+x49-y11_49 <=1 
C398: x11+x50 <=1 
C399: x11+x52 <=1 
C400: x11+x55 <=1 
C401: x11+x58-y11_58 <=1 
C402: x12+x13 <=1 
C403: x12+x15-y12_15 <=1 
C404: x12+x17 <=1 
C405: x12+x18-y12_18 <=1 
C406: x12+x19 <=1 
C407: x12+x20 <=1 
C408: x12+x21-y12_21 <=1 
C409: x12+x22 <=1 
C410: x12+x23 <=1 
C411: x12+x25 <=1 
C412: x12+x26-y12_26 <=1 
C413: x12+x27 <=1 
C414: x12+x28-y12_28 <=1 
C415: x12+x29-y12_29 <=1 
C416: x12+x30 <=1 
C417: x12+x31 <=1 
C418: x12+x34 <=1 
C419: x12+x36-y12_36 <=1 
C420: x12+x37 <=1 
C421: x12+x38-y12_38 <=1 
C422: x12+x39-y12_39 <=1 
C423: x12+x42 <=1 
C424: x12+x46-y12_46 <=1 
C425: x12+x47-y12_47 <=1 
C426: x12+x49-y12_49 <=1 
C427: x12+x51-y12_51 <=1 
C428: x12+x52 <=1 
C429: x12+x55-y12_55 <=1 
C430: x12+x58 <=1 
C431: x12+x59 <=1 
C432: x12+x60 <=1 
C433: x13+x14-y13_14 <=1 
C434: x13+x15 <=1 
C435: x13+x16 <=1 
C436: x13+x19-y13_19 <=1 
C437: x13+x20 <=1 
C438: x13+x24 <=1 
C439: x13+x26 <=1 
C440: x13+x27-y13_27 <=1 
C441: x13+x30 <=1 
C442: x13+x32 <=1 
C443: x13+x33-y13_33 <=1 
C444: x13+x35-y13_35 <=1 
C445: x13+x37-y13_37 <=1 
C446: x13+x38-y13_38 <=1 
C447: x13+x41 <=1 
C448: x13+x42 <=1 
C449: x13+x43-y13_43 <=1 
C450: x13+x44 <=1 
C451: x13+x47-y13_47 <=1 
C452: x13+x49 <=1 
C453: x13+x50 <=1 
C454: x13+x51 <=1 
C455: x13+x53-y13_53 <=1 
C456: x13+x55 <=1 
C457: x13+x56-y13_56 <=1 
C458: x13+x58 <=1 
C459: x13+x60-y13_60 <=1 
C460: x14+x16-y14_16 <=1 
C461: x14+x18-y14_18 <=1 
C462: x14+x19 <=1 
C463: x14+x20-y14_20 <=1 
C464: x14+x23 <=1 
C465: x14+x24 <=1 
C466: x14+x25-y14_25 <=1 
C467: x14+x26 <=1 
C468: x14+x28 <=1 
C469: x14+x29 <=1 
C470: x14+x30-y14_30 <=1 
C471: x14+x32 <=1 
C472: x14+x34 <=1 
C473: x14+x37-y14_37 <=1 
C474: x14+x38 <=1 
C475: x14+x39 <=1 
C476: x14+x40-y14_40 <=1 
C477: x14+x41 <=1 
C478: x14+x42 <=1 
C479: x14+x43-y14_43 <=1 
C480: x14+x44-y14_44 <=1 
C481: x14+x46 <=1 
C482: x14+x47-y14_47 <=1 
C483: x14+x48-y14_48 <=1 
C484: x14+x50-y14_50 <=1 
C485: x14+x51 <=1 
C486: x14+x53 <=1 
C487: x14+x54 <=1 
C488: x14+x56-y14_56 <=1 
C489: x14+x58-y14_58 <=1 
C490: x14+x59 <=1 
C491: x15+x20-y15_20 <=1 
C492: x15+x21 <=1 
C493: x15+x22-y15_22 <=1 
C494: x15+x23-y15_23 <=1 
C495: x15+x24-y15_24 <=1 
C496: x15+x25 <=1 
C497: x15+x28 <=1 
C498: x15+x29-y15_29 <=1 
C499: x15+x31-y15_31 <=1 
C500: x15+x33 <=1 
C501: x15+x34 <=1 
C502: x15+x36 <=1 
C503: x15+x37 <=1 
C504: x15+x40 <=1 
C505: x15+x41 <=1 
C506: x15+x42-y15_42 <=1 
C507: x15+x43 <=1 
C508: x15+x44-y15_44 <=1 
C509: x15+x45 <=1 
C510: x15+x46-y15_46 <=1 
C511: x15+x47-y15_47 <=1 
C512: x15+x48 <=1 
C513: x15+x49-y15_49 <=1 
C514: x15+x50-y15_50 <=1 
C515: x15+x51 <=1 
C516: x15+x53-y15_53 <=1 
C517: x15+x56-y15_56 <=1 
C518: x15+x57-y15_57 <=1 
C519: x15+x59-y15_59 <=1 
C520: x15+x60 <=1 
C521: x16+x17 <=1 
C522: x16+x19-y16_19 <=1 
C523: x16+x20-y16_20 <=1 
C524: x16+x21-y16_21 <=1 
C525: x16+x23 <=1 
C526: x16+x24-y16_24 <=1 
C527: x16+x26 <=1 
C528: x16+x31 <=1 
C529: x16+x32-y16_32 <=1 
C530: x16+x33 <=1 
C531: x16+x36-y16_36 <=1 
C532: x16+x37-y16_37 <=1 
C533: x16+x38 <=1 
C534: x16+x40-y16_40 <=1 
C535: x16+x41-y16_41 <=1 
C536: x16+x44-y16_44 <=1 
C537: x16+x45 <=1 
C538: x16+x46 <=1 
C539: x16+x47-y16_47 <=1 
C540: x16+x48-y16_48 <=1 
C541: x16+x50 <=1 
C542: x16+x51 <=1 
C543: x16+x52 <=1 
C544: x16+x53 <=1 
C545: x16+x54-y16_54 <=1 
C546: x16+x55 <=1 
C547: x16+x56 <=1 
C548: x16+x59-y16_59 <=1 
C549: x16+x60-y16_60 <=1 
C550: x17+x18 <=1 
C551: x17+x20-y17_20 <=1 
C552: x17+x22 <=1 
C553: x17+x24 <=1 
C554: x17+x26 <=1 
C555: x17+x30 <=1 
C556: x17+x31-y17_31 <=1 
C557: x17+x36 <=1 
C558: x17+x37 <=1 
C559: x17+x39-y17_39 <=1 
C560: x17+x40-y17_40 <=1 
C561: x17+x42 <=1 
C562: x17+x43 <=1 
C563: x17+x45 <=1 
C564: x17+x46-y17_46 <=1 
C565: x17+x47-y17_47 <=1 
C566: x17+x50 <=1 
C567: x17+x51-y17_51 <=1 
C568: x17+x53 <=1 
C569: x17+x54-y17_54 <=1 
C570: x17+x57 <=1 
C571: x17+x58 <=1 
C572: x17+x59 <=1 
C573: x18+x19 <=1 
C574: x18+x22-y18_22 <=1 
C575: x18+x23-y18_23 <=1 
C576: x18+x25 <=1 
C577: x18+x26-y18_26 <=1 
C578: x18+x28 <=1 
C579: x18+x29 <=1 
C580: x18+x30-y18_30 <=1 
C581: x18+x32-y18_32 <=1 
C582: x18+x33 <=1 
C583: x18+x34-y18_34 <=1 
C584: x18+x35 <=1 
C585: x18+x38-y18_38 <=1 
C586: x18+x41 <=1 
C587: x18+x42-y18_42 <=1 
C588: x18+x43-y18_43 <=1 
C589: x18+x44-y18_44 <=1 
C590: x18+x46 <=1 
C591: x18+x49-y18_49 <=1 
C592: x18+x50-y18_50 <=1 
C593: x18+x51 <=1 
C594: x18+x53 <=1 
C595: x18+x55-y18_55 <=1 
C596: x18+x57-y18_57 <=1 
C597: x18+x58-y18_58 <=1 
C598: x18+x59 <=1 
C599: x18+x60-y18_60 <=1 
C600: x19+x20 <=1 
C601: x19+x21 <=1 
C602: x19+x22 <=1 
C603: x19+x23 <=1 
C604: x19+x25-y19_25 <=1 
C605: x19+x26-y19_26 <=1 
C606: x19+x27 <=1 
C607: x19+x30 <=1 
C608: x19+x31 <=1 
C609: x19+x33 <=1 
C610: x19+x35 <=1 
C611: x19+x36-y19_36 <=1 
C612: x19+x37 <=1 
C613: x19+x38 <=1 
C614: x19+x40-y19_40 <=1 
C615: x19+x41-y19_41 <=1 
C616: x19+x42-y19_42 <=1 
C617: x19+x43 <=1 
C618: x19+x44 <=1 
C619: x19+x46 <=1 
C620: x19+x47 <=1 
C621: x19+x48-y19_48 <=1 
C622: x19+x50 <=1 
C623: x19+x52 <=1 
C624: x19+x53 <=1 
C625: x19+x54 <=1 
C626: x19+x55-y19_55 <=1 
C627: x19+x56 <=1 
C628: x19+x59 <=1 
C629: x19+x60 <=1 
C630: x20+x22 <=1 
C631: x20+x23-y20_23 <=1 
C632: x20+x24-y20_24 <=1 
C633: x20+x25-y20_25 <=1 
C634: x20+x26 <=1 
C635: x20+x28 <=1 
C636: x20+x31-y20_31 <=1 
C637: x20+x32-y20_32 <=1 
C638: x20+x33-y20_33 <=1 
C639: x20+x35-y20_35 <=1 
C640: x20+x36-y20_36 <=1 
C641: x20+x39-y20_39 <=1 
C642: x20+x40-y20_40 <=1 
C643: x20+x41-y20_41 <=1 
C644: x20+x43 <=1 
C645: x20+x44-y20_44 <=1 
C646: x20+x45 <=1 
C647: x20+x48-y20_48 <=1 
C648: x20+x49-y20_49 <=1 
C649: x20+x50-y20_50 <=1 
C650: x20+x51 <=1 
C651: x20+x52 <=1 
C652: x20+x53 <=1 
C653: x20+x55 <=1 
C654: x20+x56-y20_56 <=1 
C655: x20+x57 <=1 
C656: x20+x58-y20_58 <=1 
C657: x20+x59 <=1 
C658: x20+x60 <=1 
C659: x21+x23-y21_23 <=1 
C660: x21+x24 <=1 
C661: x21+x25 <=1 
C662: x21+x26-y21_26 <=1 
C663: x21+x29-y21_29 <=1 
C664: x21+x31 <=1 
C665: x21+x33 <=1 
C666: x21+x35-y21_35 <=1 
C667: x21+x36 <=1 
C668: x21+x37-y21_37 <=1 
C669: x21+x38-y21_38 <=1 
C670: x21+x41 <=1 
C671: x21+x42 <=1 
C672: x21+x44-y21_44 <=1 
C673: x21+x45 <=1 
C674: x21+x47 <=1 
C675: x21+x49-y21_49 <=1 
C676: x21+x51-y21_51 <=1 
C677: x21+x53-y21_53 <=1 
C678: x21+x56-y21_56 <=1 
C679: x21+x57-y21_57 <=1 
C680: x21+x58-y21_58 <=1 
C681: x21+x59 <=1 
C682: x21+x60 <=1 
C683: x22+x24-y22_24 <=1 
C684: x22+x25 <=1 
C685: x22+x26-y22_26 <=1 
C686: x22+x29 <=1 
C687: x22+x30 <=1 
C688: x22+x33-y22_33 <=1 
C689: x22+x35-y22_35 <=1 
C690: x22+x36-y22_36 <=1 
C691: x22+x38-y22_38 <=1 
C692: x22+x39 <=1 
C693: x22+x40 <=1 
C694: x22+x42 <=1 
C695: x22+x43-y22_43 <=1 
C696: x22+x45-y22_45 <=1 
C697: x22+x46-y22_46 <=1 
C698: x22+x47-y22_47 <=1 
C699: x22+x49-y22_49 <=1 
C700: x22+x50 <=1 
C701: x22+x52-y22_52 <=1 
C702: x22+x53-y22_53 <=1 
C703: x22+x55 <=1 
C704: x22+x57-y22_57 <=1 
C705: x22+x59 <=1 
C706: x23+x24 <=1 
C707: x23+x26-y23_26 <=1 
C708: x23+x28-y23_28 <=1 
C709: x23+x29 <=1 
C710: x23+x31 <=1 
C711: x23+x32-y23_32 <=1 
C712: x23+x33 <=1 
C713: x23+x34 <=1 
C714: x23+x35-y23_35 <=1 
C715: x23+x37-y23_37 <=1 
C716: x23+x45-y23_45 <=1 
C717: x23+x46 <=1 
C718: x23+x49 <=1 
C719: x23+x50-y23_50 <=1 
C720: x23+x53-y23_53 <=1 
C721: x23+x54-y23_54 <=1 
C722: x23+x55 <=1 
C723: x23+x56 <=1 
C724: x23+x57-y23_57 <=1 
C725: x23+x58-y23_58 <=1 
C726: x23+x60 <=1 
C727: x24+x25 <=1 
C728: x24+x26 <=1 
C729: x24+x27 <=1 
C730: x24+x28-y24_28 <=1 
C731: x24+x29-y24_29 <=1 
C732: x24+x32 <=1 
C733: x24+x35-y24_35 <=1 
C734: x24+x36 <=1 
C735: x24+x37-y24_37 <=1 
C736: x24+x38 <=1 
C737: x24+x39 <=1 
C738: x24+x40 <=1 
C739: x24+x41-y24_41 <=1 
C740: x24+x43 <=1 
C741: x24+x45-y24_45 <=1 
C742: x24+x50 <=1 
C743: x24+x52 <=1 
C744: x24+x55 <=1 
C745: x24+x56-y24_56 <=1 
C746: x24+x57-y24_57 <=1 
C747: x24+x60-y24_60 <=1 
C748: x25+x26 <=1 
C749: x25+x27-y25_27 <=1 
C750: x25+x28 <=1 
C751: x25+x29 <=1 
C752: x25+x30 <=1 
C753: x25+x33-y25_33 <=1 
C754: x25+x34 <=1 
C755: x25+x35 <=1 
C756: x25+x38 <=1 
C757: x25+x39-y25_39 <=1 
C758: x25+x40-y25_40 <=1 
C759: x25+x41 <=1 
C760: x25+x42-y25_42 <=1 
C761: x25+x43 <=1 
C762: x25+x44 <=1 
C763: x25+x45-y25_45 <=1 
C764: x25+x47-y25_47 <=1 
C765: x25+x49-y25_49 <=1 
C766: x25+x50-y25_50 <=1 
C767: x25+x52-y25_52 <=1 
C768: x25+x54 <=1 
C769: x25+x55 <=1 
C770: x25+x56 <=1 
C771: x25+x60 <=1 
C772: x26+x28 <=1 
C773: x26+x29-y26_29 <=1 
C774: x26+x30-y26_30 <=1 
C775: x26+x31-y26_31 <=1 
C776: x26+x32-y26_32 <=1 
C777: x26+x35-y26_35 <=1 
C778: x26+x36-y26_36 <=1 
C779: x26+x37-y26_37 <=1 
C780: x26+x38-y26_38 <=1 
C781: x26+x39-y26_39 <=1 
C782: x26+x40 <=1 
C783: x26+x41 <=1 
C784: x26+x42 <=1 
C785: x26+x43 <=1 
C786: x26+x44-y26_44 <=1 
C787: x26+x45-y26_45 <=1 
C788: x26+x47 <=1 
C789: x26+x50-y26_50 <=1 
C790: x26+x51-y26_51 <=1 
C791: x26+x53-y26_53 <=1 
C792: x26+x54-y26_54 <=1 
C793: x26+x56-y26_56 <=1 
C794: x26+x57-y26_57 <=1 
C795: x26+x59-y26_59 <=1 
C796: x26+x60 <=1 
C797: x27+x30-y27_30 <=1 
C798: x27+x32-y27_32 <=1 
C799: x27+x35-y27_35 <=1 
C800: x27+x37-y27_37 <=1 
C801: x27+x38-y27_38 <=1 
C802: x27+x39 <=1 
C803: x27+x40-y27_40 <=1 
C804: x27+x41 <=1 
C805: x27+x42-y27_42 <=1 
C806: x27+x43 <=1 
C807: x27+x44 <=1 
C808: x27+x46 <=1 
C809: x27+x47 <=1 
C810: x27+x50 <=1 
C811: x27+x52-y27_52 <=1 
C812: x27+x53 <=1 
C813: x27+x54 <=1 
C814: x27+x55-y27_55 <=1 
C815: x27+x57-y27_57 <=1 
C816: x27+x58 <=1 
C817: x27+x60 <=1 
C818: x28+x29-y28_29 <=1 
C819: x28+x30 <=1 
C820: x28+x31-y28_31 <=1 
C821: x28+x32 <=1 
C822: x28+x34-y28_34 <=1 
C823: x28+x35-y28_35 <=1 
C824: x28+x37 <=1 
C825: x28+x38-y28_38 <=1 
C826: x28+x39 <=1 
C827: x28+x40-y28_40 <=1 
C828: x28+x41 <=1 
C829: x28+x43-y28_43 <=1 
C830: x28+x47 <=1 
C831: x28+x50-y28_50 <=1 
C832: x28+x52 <=1 
C833: x28+x54-y28_54 <=1 
C834: x28+x55 <=1 
C835: x28+x56 <=1 
C836: x28+x60 <=1 
C837: x29+x30-y29_30 <=1 
C838: x29+x31 <=1 
C839: x29+x36-y29_36 <=1 
C840: x29+x39 <=1 
C841: x29+x40 <=1 
C842: x29+x41 <=1 
C843: x29+x42-y29_42 <=1 
C844: x29+x45 <=1 
C845: x29+x46-y29_46 <=1 
C846: x29+x47-y29_47 <=1 
C847: x29+x48 <=1 
C848: x29+x50 <=1 
C849: x29+x52-y29_52 <=1 
C850: x29+x56 <=1 
C851: x29+x58-y29_58 <=1 
C852: x29+x59 <=1 
C853: x29+x60 <=1 
C854: x30+x31 <=1 
C855: x30+x32-y30_32 <=1 
C856: x30+x33-y30_33 <=1 
C857: x30+x38 <=1 
C858: x30+x40 <=1 
C859: x30+x41-y30_41 <=1 
C860: x30+x43 <=1 
C861: x30+x44-y30_44 <=1 
C862: x30+x45-y30_45 <=1 
C863: x30+x46-y30_46 <=1 
C864: x30+x47-y30_47 <=1 
C865: x30+x48-y30_48 <=1 
C866: x30+x49 <=1 
C867: x30+x50-y30_50 <=1 
C868: x30+x51 <=1 
C869: x30+x52 <=1 
C870: x30+x53 <=1 
C871: x30+x54 <=1 
C872: x30+x55 <=1 
C873: x30+x59-y30_59 <=1 
C874: x30+x60 <=1 
C875: x31+x32-y31_32 <=1 
C876: x31+x33 <=1 
C877: x31+x36-y31_36 <=1 
C878: x31+x37-y31_37 <=1 
C879: x31+x38-y31_38 <=1 
C880: x31+x41 <=1 
C881: x31+x42 <=1 
C882: x31+x43-y31_43 <=1 
C883: x31+x44 <=1 
C884: x31+x45 <=1 
C885: x31+x47 <=1 
C886: x31+x48-y31_48 <=1 
C887: x31+x49 <=1 
C888: x31+x51 <=1 
C889: x31+x52-y31_52 <=1 
C890: x31+x53 <=1 
C891: x31+x54-y31_54 <=1 
C892: x31+x56 <=1 
C893: x31+x57 <=1 
C894: x31+x58 <=1 
C895: x31+x59-y31_59 <=1 
C896: x32+x34 <=1 
C897: x32+x35-y32_35 <=1 
C898: x32+x36 <=1 
C899: x32+x37-y32_37 <=1 
C900: x32+x38 <=1 
C901: x32+x41-y32_41 <=1 
C902: x32+x43-y32_43 <=1 
C903: x32+x45-y32_45 <=1 
C904: x32+x46 <=1 
C905: x32+x47-y32_47 <=1 
C906: x32+x48 <=1 
C907: x32+x49-y32_49 <=1 
C908: x32+x51-y32_51 <=1 
C909: x32+x54-y32_54 <=1 
C910: x32+x55-y32_55 <=1 
C911: x32+x56-y32_56 <=1 
C912: x32+x57 <=1 
C913: x32+x58-y32_58 <=1 
C914: x33+x34-y33_34 <=1 
C915: x33+x36 <=1 
C916: x33+x38 <=1 
C917: x33+x41 <=1 
C918: x33+x42 <=1 
C919: x33+x44-y33_44 <=1 
C920: x33+x45-y33_45 <=1 
C921: x33+x46 <=1 
C922: x33+x47 <=1 
C923: x33+x48-y33_48 <=1 
C924: x33+x50-y33_50 <=1 
C925: x33+x51 <=1 
C926: x33+x52 <=1 
C927: x33+x53-y33_53 <=1 
C928: x33+x55-y33_55 <=1 
C929: x33+x56-y33_56 <=1 
C930: x33+x57-y33_57 <=1 
C931: x33+x59-y33_59 <=1 
C932: x33+x60-y33_60 <=1 
C933: x34+x39 <=1 
C934: x34+x40-y34_40 <=1 
C935: x34+x42 <=1 
C936: x34+x43 <=1 
C937: x34+x44-y34_44 <=1 
C938: x34+x46-y34_46 <=1 
C939: x34+x47-y34_47 <=1 
C940: x34+x50-y34_50 <=1 
C941: x34+x51-y34_51 <=1 
C942: x34+x52-y34_52 <=1 
C943: x34+x54-y34_54 <=1 
C944: x34+x55 <=1 
C945: x34+x60-y34_60 <=1 
C946: x35+x37-y35_37 <=1 
C947: x35+x38-y35_38 <=1 
C948: x35+x40-y35_40 <=1 
C949: x35+x41 <=1 
C950: x35+x42 <=1 
C951: x35+x43-y35_43 <=1 
C952: x35+x45-y35_45 <=1 
C953: x35+x46 <=1 
C954: x35+x48-y35_48 <=1 
C955: x35+x49-y35_49 <=1 
C956: x35+x52 <=1 
C957: x35+x54-y35_54 <=1 
C958: x35+x55 <=1 
C959: x35+x57 <=1 
C960: x35+x58-y35_58 <=1 
C961: x35+x59-y35_59 <=1 
C962: x35+x60 <=1 
C963: x36+x37 <=1 
C964: x36+x41-y36_41 <=1 
C965: x36+x43-y36_43 <=1 
C966: x36+x44-y36_44 <=1 
C967: x36+x47-y36_47 <=1 
C968: x36+x48-y36_48 <=1 
C969: x36+x50-y36_50 <=1 
C970: x36+x54-y36_54 <=1 
C971: x36+x56-y36_56 <=1 
C972: x36+x57 <=1 
C973: x36+x58-y36_58 <=1 
C974: x37+x40-y37_40 <=1 
C975: x37+x42 <=1 
C976: x37+x43-y37_43 <=1 
C977: x37+x44-y37_44 <=1 
C978: x37+x48-y37_48 <=1 
C979: x37+x49-y37_49 <=1 
C980: x37+x50-y37_50 <=1 
C981: x37+x51 <=1 
C982: x37+x52 <=1 
C983: x37+x54 <=1 
C984: x37+x56 <=1 
C985: x37+x59 <=1 
C986: x38+x39-y38_39 <=1 
C987: x38+x40 <=1 
C988: x38+x41 <=1 
C989: x38+x42-y38_42 <=1 
C990: x38+x44 <=1 
C991: x38+x45 <=1 
C992: x38+x47-y38_47 <=1 
C993: x38+x49 <=1 
C994: x38+x50 <=1 
C995: x38+x51-y38_51 <=1 
C996: x38+x52-y38_52 <=1 
C997: x38+x53-y38_53 <=1 
C998: x38+x54-y38_54 <=1 
C999: x38+x56-y38_56 <=1 
C1000: x38+x57 <=1 
C1001: x38+x59-y38_59 <=1 
C1002: x38+x60 <=1 
C1003: x39+x40 <=1 
C1004: x39+x43-y39_43 <=1 
C1005: x39+x44-y39_44 <=1 
C1006: x39+x46-y39_46 <=1 
C1007: x39+x47 <=1 
C1008: x39+x49 <=1 
C1009: x39+x51 <=1 
C1010: x39+x53 <=1 
C1011: x39+x54 <=1 
C1012: x39+x55-y39_55 <=1 
C1013: x39+x56-y39_56 <=1 
C1014: x39+x59-y39_59 <=1 
C1015: x40+x41-y40_41 <=1 
C1016: x40+x44-y40_44 <=1 
C1017: x40+x45-y40_45 <=1 
C1018: x40+x48 <=1 
C1019: x40+x49-y40_49 <=1 
C1020: x40+x50 <=1 
C1021: x40+x51 <=1 
C1022: x40+x52 <=1 
C1023: x40+x54 <=1 
C1024: x40+x55-y40_55 <=1 
C1025: x40+x56 <=1 
C1026: x40+x57-y40_57 <=1 
C1027: x40+x59-y40_59 <=1 
C1028: x40+x60 <=1 
C1029: x41+x43 <=1 
C1030: x41+x46-y41_46 <=1 
C1031: x41+x47-y41_47 <=1 
C1032: x41+x48-y41_48 <=1 
C1033: x41+x49-y41_49 <=1 
C1034: x41+x51 <=1 
C1035: x41+x52-y41_52 <=1 
C1036: x41+x56 <=1 
C1037: x41+x57-y41_57 <=1 
C1038: x41+x58 <=1 
C1039: x41+x59 <=1 
C1040: x41+x60 <=1 
C1041: x42+x48-y42_48 <=1 
C1042: x42+x51 <=1 
C1043: x42+x53-y42_53 <=1 
C1044: x42+x54 <=1 
C1045: x42+x55-y42_55 <=1 
C1046: x42+x60 <=1 
C1047: x43+x44-y43_44 <=1 
C1048: x43+x45-y43_45 <=1 
C1049: x43+x46 <=1 
C1050: x43+x47-y43_47 <=1 
C1051: x43+x49-y43_49 <=1 
C1052: x43+x50 <=1 
C1053: x43+x51 <=1 
C1054: x43+x52-y43_52 <=1 
C1055: x43+x53 <=1 
C1056: x43+x54-y43_54 <=1 
C1057: x43+x55 <=1 
C1058: x43+x56-y43_56 <=1 
C1059: x43+x57 <=1 
C1060: x43+x58-y43_58 <=1 
C1061: x43+x60-y43_60 <=1 
C1062: x44+x45 <=1 
C1063: x44+x46 <=1 
C1064: x44+x47 <=1 
C1065: x44+x48 <=1 
C1066: x44+x49-y44_49 <=1 
C1067: x44+x50 <=1 
C1068: x44+x51 <=1 
C1069: x44+x53 <=1 
C1070: x44+x54 <=1 
C1071: x44+x56 <=1 
C1072: x44+x57 <=1 
C1073: x44+x58-y44_58 <=1 
C1074: x44+x59-y44_59 <=1 
C1075: x44+x60 <=1 
C1076: x45+x46 <=1 
C1077: x45+x48 <=1 
C1078: x45+x50 <=1 
C1079: x45+x55 <=1 
C1080: x45+x56 <=1 
C1081: x45+x57 <=1 
C1082: x45+x58-y45_58 <=1 
C1083: x45+x59 <=1 
C1084: x45+x60-y45_60 <=1 
C1085: x46+x48-y46_48 <=1 
C1086: x46+x49 <=1 
C1087: x46+x51 <=1 
C1088: x46+x52-y46_52 <=1 
C1089: x46+x53 <=1 
C1090: x46+x55-y46_55 <=1 
C1091: x46+x59-y46_59 <=1 
C1092: x47+x49-y47_49 <=1 
C1093: x47+x50-y47_50 <=1 
C1094: x47+x51-y47_51 <=1 
C1095: x47+x54-y47_54 <=1 
C1096: x47+x58-y47_58 <=1 
C1097: x47+x59-y47_59 <=1 
C1098: x47+x60-y47_60 <=1 
C1099: x48+x49 <=1 
C1100: x48+x51-y48_51 <=1 
C1101: x48+x54-y48_54 <=1 
C1102: x48+x58 <=1 
C1103: x48+x60 <=1 
C1104: x49+x51-y49_51 <=1 
C1105: x49+x52 <=1 
C1106: x49+x56-y49_56 <=1 
C1107: x49+x57 <=1 
C1108: x49+x58 <=1 
C1109: x49+x60-y49_60 <=1 
C1110: x50+x51-y50_51 <=1 
C1111: x50+x52 <=1 
C1112: x50+x53 <=1 
C1113: x50+x54-y50_54 <=1 
C1114: x50+x55 <=1 
C1115: x50+x56 <=1 
C1116: x50+x57-y50_57 <=1 
C1117: x50+x59 <=1 
C1118: x50+x60 <=1 
C1119: x51+x54-y51_54 <=1 
C1120: x51+x56 <=1 
C1121: x51+x57 <=1 
C1122: x51+x58 <=1 
C1123: x52+x53 <=1 
C1124: x52+x54-y52_54 <=1 
C1125: x52+x56 <=1 
C1126: x52+x57-y52_57 <=1 
C1127: x52+x58 <=1 
C1128: x53+x54 <=1 
C1129: x53+x55-y53_55 <=1 
C1130: x53+x56-y53_56 <=1 
C1131: x53+x57-y53_57 <=1 
C1132: x53+x58 <=1 
C1133: x53+x59-y53_59 <=1 
C1134: x54+x56 <=1 
C1135: x54+x58-y54_58 <=1 
C1136: x54+x59-y54_59 <=1 
C1137: x54+x60 <=1 
C1138: x55+x58-y55_58 <=1 
C1139: x56+x59-y56_59 <=1 
C1140: x57+x59-y57_59 <=1 
C1141: x57+x60-y57_60 <=1 

binary
x0
x1
x2
x3
x4
x5
x6
x7
x8
x9
x10
x11
x12
x13
x14
x15
x16
x17
x18
x19
x20
x21
x22
x23
x24
x25
x26
x27
x28
x29
x30
x31
x32
x33
x34
x35
x36
x37
x38
x39
x40
x41
x42
x43
x44
x45
x46
x47
x48
x49
x50
x51
x52
x53
x54
x55
x56
x57
x58
x59
x60
