problem_generation/data/GISP/train/er_n=61_m=1141_p=0.60_SET2_setparam=100.00_alpha=0.50_201.sol
objective value:                                 1177
x3                                                  1 	(obj:100)
x10                                                 1 	(obj:100)
x11                                                 1 	(obj:100)
x22                                                 1 	(obj:100)
x24                                                 1 	(obj:100)
x34                                                 1 	(obj:100)
x37                                                 1 	(obj:100)
x41                                                 1 	(obj:100)
x47                                                 1 	(obj:100)
x48                                                 1 	(obj:100)
x53                                                 1 	(obj:100)
x57                                                 1 	(obj:100)
y24_41                                              1 	(obj:-1)
y3_47                                               1 	(obj:-1)
y10_11                                              1 	(obj:-1)
y53_57                                              1 	(obj:-1)
y11_41                                              1 	(obj:-1)
y37_48                                              1 	(obj:-1)
y11_22                                              1 	(obj:-1)
y10_53                                              1 	(obj:-1)
y34_47                                              1 	(obj:-1)
y22_53                                              1 	(obj:-1)
y10_24                                              1 	(obj:-1)
y24_57                                              1 	(obj:-1)
y24_37                                              1 	(obj:-1)
y11_48                                              1 	(obj:-1)
y11_34                                              1 	(obj:-1)
y22_57                                              1 	(obj:-1)
y3_53                                               1 	(obj:-1)
y41_48                                              1 	(obj:-1)
y41_57                                              1 	(obj:-1)
y22_47                                              1 	(obj:-1)
y41_47                                              1 	(obj:-1)
y10_41                                              1 	(obj:-1)
y22_24                                              1 	(obj:-1)
